letting maxWeight=94
letting values=[25, 5, 18, 37, 32, 28, 7, 9, 7, 16, 19, 15, 6, 33, 20, 27, 13, 29, 22, 17, 36, 28, 2, 6, 38, 39, 7, 22, 16, 29, 30, 6, 12, 27, 19, 1, 38, 30, 26, 31, 3, 38, 19, 16, 19, 23, 25, 9, 36, 20]
letting weights=[2, 19, 12, 18, 20, 21, 12, 10, 18, 10, 17, 21, 2, 8, 13, 19, 15, 12, 12, 21, 5, 2, 18, 14, 21, 7, 5, 18, 4, 17, 22, 22, 14, 17, 19, 3, 19, 4, 19, 20, 3, 20, 8, 1, 19, 14, 11, 17, 2, 16]
